70
    1    31    38
    2    50    45
    3    16    19
    4    18    20
    5    51    51
    6    55    62
    7     8     2
    8    38    38
    9    75    70
   10    11    15
   11    45    52
   12     1     8
   13    69    69
   14    33    31
   15    34    27
   16    13     9
   17    32    34
   18    59    65
   19    67    66
   20     6     5
   21    60    54
   22    66    66
   23    53    57
   24    20    13
   25    46    47
   26    44    49
   27    19    19
   28    72    68
   29    28    30
   30    62    68
   31    35    40
   32     9    16
   33    15    14
   34    70    66
   35    45    51
   36    62    58
   37    16    19
   38    12    19
   39    67    61
   40    35    29
   41    45    44
   42     6     2
   43    42    43
   44     2     8
   45    60    60
   46    25    23
   47    29    32
   48    31    32
   49    10    14
   50    32    37
   51    39    35
   52    38    45
   53    69    68
   54     6     3
   55     2     3
   56    15    22
   57    30    36
   58     7    13
   59    52    49
   60    34    41
   61    43    49
   62    60    67
   63    41    44
   64    28    29
   65    28    30
   66    18    21
   67    30    37
   68    65    69
   69    34    29
   70    28    28
71
